n_trains = 50;
n_tracks = 12;
tracks = [{1,2,3}, {4,5}, {6,7,8}, {9,10}, {11,12,13,14}, {15}, {16,17}, {18,19,20}];

arrival_order = [3, 15, 20, 10, 6, 18, 1, 14, 8, 7, 12, 13, 4, 2, 19, 5, 16, 11, 17, 9];
departure_order = [1,2,3,4,5,6,7,8,9,10,11,12,13,14,15,16,17,18,19,20];
